100 1273894820
65 92 52 71 94 34 37 66 70 85 82 45 2 87 35 36 86 99 48 12 90 11 79 97 83 22 31 33 68 21 89 53 69 100 46 59 49 20 24 3 57 78 5 75 51 73 80 58 7 88 47 29 60 32 84 95 72 18 81 8 27 38 17 15 42 67 26 19 62 56 23 40 25 55 1 96 74 10 30 64 44 14 43 61 13 63 4 6 76 39 16 98 91 28 41 93 50 9 54 77 
